c Command line: hgen8 190 20
p cnf 190 292
82 83 156 168 0
101 105 15 113 0
88 128 181 30 0
4 121 44 64 0
35 185 130 93 0
174 26 155 25 0
36 28 37 23 0
42 29 188 167 0
96 171 165 16 0
92 150 72 94 0
97 9 163 106 0
104 76 153 91 0
32 123 1 74 0
81 54 62 55 0
180 115 43 90 0
137 136 67 161 0
8 52 5 166 0
73 172 50 112 0
131 129 13 7 0
98 63 182 102 0
12 114 162 22 0
154 79 148 159 0
34 140 21 60 0
178 160 70 111 0
108 125 2 40 0
134 27 119 89 0
157 39 85 107 0
133 78 116 3 0
118 139 68 19 0
56 143 175 31 0
110 57 65 66 0
51 46 33 122 0
184 141 80 186 0
189 151 95 147 0
146 164 126 138 0
187 124 177 61 0
109 144 190 48 0
170 41 132 142 0
14 24 58 49 0
-1 -2 0
-1 -3 0
-1 -4 0
-1 -5 0
-2 -3 0
-2 -4 0
-2 -5 0
-3 -4 0
-3 -5 0
-4 -5 0
-7 -8 0
-7 -9 0
-8 -9 0
-12 -13 0
-12 -14 0
-12 -15 0
-13 -14 0
-13 -15 0
-14 -15 0
-16 -19 0
-21 -22 0
-21 -23 0
-21 -24 0
-21 -25 0
-22 -23 0
-22 -24 0
-22 -25 0
-23 -24 0
-23 -25 0
-24 -25 0
-26 -27 0
-26 -28 0
-26 -29 0
-26 -30 0
-27 -28 0
-27 -29 0
-27 -30 0
-28 -29 0
-28 -30 0
-29 -30 0
-31 -32 0
-31 -33 0
-31 -34 0
-31 -35 0
-32 -33 0
-32 -34 0
-32 -35 0
-33 -34 0
-33 -35 0
-34 -35 0
-36 -37 0
-36 -39 0
-36 -40 0
-37 -39 0
-37 -40 0
-39 -40 0
-41 -42 0
-41 -43 0
-41 -44 0
-42 -43 0
-42 -44 0
-43 -44 0
-46 -48 0
-46 -49 0
-46 -50 0
-48 -49 0
-48 -50 0
-49 -50 0
-51 -52 0
-51 -54 0
-51 -55 0
-52 -54 0
-52 -55 0
-54 -55 0
-56 -57 0
-56 -58 0
-56 -60 0
-57 -58 0
-57 -60 0
-58 -60 0
-61 -62 0
-61 -63 0
-61 -64 0
-61 -65 0
-62 -63 0
-62 -64 0
-62 -65 0
-63 -64 0
-63 -65 0
-64 -65 0
-66 -67 0
-66 -68 0
-66 -70 0
-67 -68 0
-67 -70 0
-68 -70 0
-72 -73 0
-72 -74 0
-73 -74 0
-76 -78 0
-76 -79 0
-76 -80 0
-78 -79 0
-78 -80 0
-79 -80 0
-81 -82 0
-81 -83 0
-81 -85 0
-82 -83 0
-82 -85 0
-83 -85 0
-88 -89 0
-88 -90 0
-89 -90 0
-91 -92 0
-91 -93 0
-91 -94 0
-91 -95 0
-92 -93 0
-92 -94 0
-92 -95 0
-93 -94 0
-93 -95 0
-94 -95 0
-96 -97 0
-96 -98 0
-97 -98 0
-101 -102 0
-101 -104 0
-101 -105 0
-102 -104 0
-102 -105 0
-104 -105 0
-106 -107 0
-106 -108 0
-106 -109 0
-106 -110 0
-107 -108 0
-107 -109 0
-107 -110 0
-108 -109 0
-108 -110 0
-109 -110 0
-111 -112 0
-111 -113 0
-111 -114 0
-111 -115 0
-112 -113 0
-112 -114 0
-112 -115 0
-113 -114 0
-113 -115 0
-114 -115 0
-116 -118 0
-116 -119 0
-118 -119 0
-121 -122 0
-121 -123 0
-121 -124 0
-121 -125 0
-122 -123 0
-122 -124 0
-122 -125 0
-123 -124 0
-123 -125 0
-124 -125 0
-126 -128 0
-126 -129 0
-126 -130 0
-128 -129 0
-128 -130 0
-129 -130 0
-131 -132 0
-131 -133 0
-131 -134 0
-132 -133 0
-132 -134 0
-133 -134 0
-136 -137 0
-136 -138 0
-136 -139 0
-136 -140 0
-137 -138 0
-137 -139 0
-137 -140 0
-138 -139 0
-138 -140 0
-139 -140 0
-141 -142 0
-141 -143 0
-141 -144 0
-142 -143 0
-142 -144 0
-143 -144 0
-146 -147 0
-146 -148 0
-146 -150 0
-147 -148 0
-147 -150 0
-148 -150 0
-151 -153 0
-151 -154 0
-151 -155 0
-153 -154 0
-153 -155 0
-154 -155 0
-156 -157 0
-156 -159 0
-156 -160 0
-157 -159 0
-157 -160 0
-159 -160 0
-161 -162 0
-161 -163 0
-161 -164 0
-161 -165 0
-162 -163 0
-162 -164 0
-162 -165 0
-163 -164 0
-163 -165 0
-164 -165 0
-166 -167 0
-166 -168 0
-166 -170 0
-167 -168 0
-167 -170 0
-168 -170 0
-171 -172 0
-171 -174 0
-171 -175 0
-172 -174 0
-172 -175 0
-174 -175 0
-177 -178 0
-177 -180 0
-178 -180 0
-181 -182 0
-181 -184 0
-181 -185 0
-182 -184 0
-182 -185 0
-184 -185 0
-186 -187 0
-186 -188 0
-186 -189 0
-186 -190 0
-187 -188 0
-187 -189 0
-187 -190 0
-188 -189 0
-188 -190 0
-189 -190 0
